20 380
0 1 68.3
0 2 77.7
0 3 67.6
0 4 45.2
0 5 49.8
0 6 76.2
0 7 44.6
0 8 59.4
0 9 54.0
0 10 26.0
0 11 69.2
0 12 57.9
0 13 66.8
0 14 34.6
0 15 76.3
0 16 46.9
0 17 62.1
0 18 24.1
0 19 27.1
1 2 18.0
1 3 9.8
1 4 76.0
1 5 48.9
1 6 22.3
1 7 47.2
1 8 27.1
1 9 30.1
1 10 47.4
1 11 24.3
1 12 15.0
1 13 17.8
1 14 65.2
1 15 12.6
1 16 30.9
1 17 40.7
1 18 47.9
1 19 43.6
2 3 11.2
2 4 92.2
2 5 66.3
2 6 38.1
2 7 46.0
2 8 45.1
2 9 47.7
2 10 60.7
2 11 41.8
2 12 32.3
2 13 11.5
2 14 66.2
2 15 26.6
2 16 32.8
2 17 32.7
2 18 60.7
2 19 56.2
3 4 81.1
3 5 55.6
3 6 32.1
3 7 40.4
3 8 35.3
3 9 37.4
3 10 49.6
3 11 33.8
3 12 21.9
3 13 8.0
3 14 59.6
3 15 21.9
3 16 25.1
3 17 31.5
3 18 49.6
3 19 45.2
4 5 29.4
4 6 70.1
4 7 79.6
4 8 52.3
4 9 47.3
4 10 35.6
4 11 61.7
4 12 61.1
4 13 84.8
4 14 77.4
4 15 76.9
4 16 72.6
4 17 92.0
4 18 37.1
4 19 40.6
5 6 40.7
5 7 66.3
5 8 23.3
5 9 18.9
5 10 25.9
5 11 32.4
5 12 34.1
5 13 60.8
5 14 71.9
5 15 48.1
5 16 54.4
5 17 73.7
5 18 28.1
5 19 28.4
6 7 66.4
6 8 18.5
6 9 24.2
6 10 51.2
6 11 8.4
6 12 19.9
6 13 40.1
6 14 81.8
6 15 11.7
6 16 49.8
6 17 62.5
6 18 52.6
6 19 49.2
7 8 58.4
7 9 56.1
7 10 44.5
7 11 63.6
7 12 47.4
7 13 34.8
7 14 20.6
7 15 59.6
7 16 16.6
7 17 18.8
7 18 42.7
7 19 39.9
8 9 5.7
8 10 33.7
8 11 10.4
8 12 13.8
8 13 42.0
8 14 70.4
8 15 24.7
8 16 43.1
8 17 60.0
8 18 35.3
8 19 32.5
9 10 28.1
9 11 16.1
9 12 15.5
9 13 43.4
9 14 66.7
9 15 29.6
9 16 41.5
9 17 59.5
9 18 29.9
9 19 27.3
10 11 43.8
10 12 34.5
10 13 51.6
10 14 46.5
10 15 53.0
10 16 37.1
10 17 56.4
10 18 2.3
10 19 5.0
11 12 16.2
11 13 41.4
11 14 77.6
11 15 17.4
11 16 47.4
11 17 62.2
11 18 45.3
11 19 42.2
12 13 28.3
12 14 62.0
12 15 18.6
12 16 31.2
12 17 46.8
12 18 35.4
12 19 31.4
13 14 54.8
13 15 29.9
13 16 21.3
13 17 23.8
13 18 51.3
13 19 46.9
14 15 76.8
14 16 34.6
14 17 38.6
14 18 44.3
14 19 43.4
15 16 43.1
15 17 53.2
15 18 54.0
15 19 50.0
16 17 19.6
16 18 36.1
16 19 32.1
17 18 55.2
17 19 51.4
18 19 4.5
